time,creep_strain_xx,creep_strain_yy,elastic_strain_xx,elastic_strain_yy,elastic_strain_zz,sigma_xx,sigma_yy
0,0,0,0,0,0,0,0
0.0001,2.0733271530122e-06,4.147472838877e-06,0.012000002091957,0.017322128870259,-0.0048347306164773,40,40
0.0002,4.1466543060243e-06,8.2949456777537e-06,0.012000002091957,0.017322128870259,-0.0048347306164772,40,40
